NAME: instance_661
TYPE: TSP
DIMENSION: 20
EDGE_WEIGHT_TYPE: EUC_2D
NODE_COORD_SECTION
0 56.77 42.07
1 89.40 88.70
2 64.26 92.05
3 56.91 40.47
4 33.04 56.07
5 19.24 46.97
6 39.84 44.16
7 80.28 15.50
8 84.69 8.46
9 71.87 24.49
10 69.10 25.71
11 48.80 22.02
12 9.75 49.12
13 68.21 93.20
14 96.21 30.84
15 8.10 44.65
16 98.36 12.52
17 33.14 92.07
18 17.36 80.05
19 24.33 1.93
EOF
